p cnf 144 1
144 0
w 1 0.383504
w 2 1 0.658289
w 2 -1 0.227483
w 3 2 0.321242
w 3 -2 0.19781
w 4 3 1
w 4 -3 0
w 5 4 1
w 5 -4 0
w 6 5 0
w 6 -5 1
w 7 6 0
w 7 -6 1
w 8 7 0
w 8 -7 1
w 9 8 1
w 9 -8 0
w 10 9 1
w 10 -9 0
w 11 10 0
w 11 -10 1
w 12 11 0
w 12 -11 1
w 13 1 1
w 13 -1 0
w 14 13 2 1
w 14 13 -2 0
w 14 -13 2 0
w 14 -13 -2 0
w 15 14 3 0
w 15 14 -3 1
w 15 -14 3 1
w 15 -14 -3 1
w 16 15 4 1
w 16 15 -4 0
w 16 -15 4 0
w 16 -15 -4 0
w 17 16 5 0.0101118
w 17 16 -5 0.880766
w 17 -16 5 0.91249
w 17 -16 -5 0.293499
w 18 17 6 0.162333
w 18 17 -6 0.700996
w 18 -17 6 0.400477
w 18 -17 -6 0.344278
w 19 18 7 1
w 19 18 -7 0
w 19 -18 7 0
w 19 -18 -7 0
w 20 19 8 1
w 20 19 -8 0
w 20 -19 8 1
w 20 -19 -8 1
w 21 20 9 1
w 21 20 -9 1
w 21 -20 9 0
w 21 -20 -9 0
w 22 21 10 0
w 22 21 -10 1
w 22 -21 10 1
w 22 -21 -10 0
w 23 22 11 0
w 23 22 -11 0
w 23 -22 11 0
w 23 -22 -11 1
w 24 23 12 0
w 24 23 -12 1
w 24 -23 12 0
w 24 -23 -12 1
w 25 13 0
w 25 -13 1
w 26 25 14 1
w 26 25 -14 0
w 26 -25 14 1
w 26 -25 -14 0
w 27 26 15 1
w 27 26 -15 1
w 27 -26 15 0
w 27 -26 -15 0
w 28 27 16 0.42892
w 28 27 -16 0.482057
w 28 -27 16 0.363302
w 28 -27 -16 0.589107
w 29 28 17 0
w 29 28 -17 0
w 29 -28 17 1
w 29 -28 -17 0
w 30 29 18 1
w 30 29 -18 0
w 30 -29 18 0
w 30 -29 -18 1
w 31 30 19 0
w 31 30 -19 0
w 31 -30 19 1
w 31 -30 -19 1
w 32 31 20 0
w 32 31 -20 0
w 32 -31 20 1
w 32 -31 -20 0
w 33 32 21 0.453752
w 33 32 -21 0.380008
w 33 -32 21 0.380064
w 33 -32 -21 0.2613
w 34 33 22 0
w 34 33 -22 1
w 34 -33 22 1
w 34 -33 -22 0
w 35 34 23 0
w 35 34 -23 0
w 35 -34 23 0
w 35 -34 -23 1
w 36 35 24 0.756624
w 36 35 -24 0.204
w 36 -35 24 0.0998456
w 36 -35 -24 0.353296
w 37 25 0
w 37 -25 1
w 38 37 26 0
w 38 37 -26 0
w 38 -37 26 1
w 38 -37 -26 0
w 39 38 27 1
w 39 38 -27 1
w 39 -38 27 0
w 39 -38 -27 1
w 40 39 28 0
w 40 39 -28 0
w 40 -39 28 1
w 40 -39 -28 1
w 41 40 29 0.491566
w 41 40 -29 0.203607
w 41 -40 29 0.469176
w 41 -40 -29 0.770893
w 42 41 30 1
w 42 41 -30 0
w 42 -41 30 0
w 42 -41 -30 0
w 43 42 31 0.980067
w 43 42 -31 0.139105
w 43 -42 31 0.250277
w 43 -42 -31 0.284443
w 44 43 32 0
w 44 43 -32 0
w 44 -43 32 1
w 44 -43 -32 1
w 45 44 33 0.718799
w 45 44 -33 0.687226
w 45 -44 33 0.952552
w 45 -44 -33 0.722662
w 46 45 34 0.492598
w 46 45 -34 0.106533
w 46 -45 34 0.254073
w 46 -45 -34 0.293945
w 47 46 35 0
w 47 46 -35 1
w 47 -46 35 0
w 47 -46 -35 1
w 48 47 36 1
w 48 47 -36 0
w 48 -47 36 0
w 48 -47 -36 1
w 49 37 0
w 49 -37 1
w 50 49 38 0.855569
w 50 49 -38 0.84402
w 50 -49 38 0.136099
w 50 -49 -38 0.214485
w 51 50 39 1
w 51 50 -39 1
w 51 -50 39 1
w 51 -50 -39 0
w 52 51 40 0.68188
w 52 51 -40 0.784873
w 52 -51 40 0.650207
w 52 -51 -40 0.462497
w 53 52 41 0
w 53 52 -41 1
w 53 -52 41 0
w 53 -52 -41 0
w 54 53 42 0.356927
w 54 53 -42 0.278834
w 54 -53 42 0.273222
w 54 -53 -42 0.913331
w 55 54 43 1
w 55 54 -43 0
w 55 -54 43 1
w 55 -54 -43 1
w 56 55 44 0
w 56 55 -44 1
w 56 -55 44 0
w 56 -55 -44 0
w 57 56 45 1
w 57 56 -45 1
w 57 -56 45 0
w 57 -56 -45 1
w 58 57 46 0.1405
w 58 57 -46 0.816959
w 58 -57 46 0.52344
w 58 -57 -46 0.602997
w 59 58 47 1
w 59 58 -47 1
w 59 -58 47 0
w 59 -58 -47 1
w 60 59 48 1
w 60 59 -48 1
w 60 -59 48 0
w 60 -59 -48 1
w 61 49 0
w 61 -49 1
w 62 61 50 1
w 62 61 -50 1
w 62 -61 50 0
w 62 -61 -50 0
w 63 62 51 0.926601
w 63 62 -51 0.229813
w 63 -62 51 0.261856
w 63 -62 -51 0.126365
w 64 63 52 1
w 64 63 -52 0
w 64 -63 52 0
w 64 -63 -52 0
w 65 64 53 0.572174
w 65 64 -53 0.463973
w 65 -64 53 0.069841
w 65 -64 -53 0.852354
w 66 65 54 0.735687
w 66 65 -54 0.548517
w 66 -65 54 0.863415
w 66 -65 -54 0.75846
w 67 66 55 0
w 67 66 -55 1
w 67 -66 55 1
w 67 -66 -55 0
w 68 67 56 0
w 68 67 -56 0
w 68 -67 56 0
w 68 -67 -56 1
w 69 68 57 0.788684
w 69 68 -57 0.0876685
w 69 -68 57 0.213127
w 69 -68 -57 0.05054
w 70 69 58 0
w 70 69 -58 1
w 70 -69 58 1
w 70 -69 -58 0
w 71 70 59 1
w 71 70 -59 1
w 71 -70 59 1
w 71 -70 -59 0
w 72 71 60 0.879505
w 72 71 -60 0.153424
w 72 -71 60 0.410408
w 72 -71 -60 0.742919
w 73 61 0.933922
w 73 -61 0.959431
w 74 73 62 0
w 74 73 -62 1
w 74 -73 62 0
w 74 -73 -62 1
w 75 74 63 0.838005
w 75 74 -63 0.436024
w 75 -74 63 0.953224
w 75 -74 -63 0.626689
w 76 75 64 1
w 76 75 -64 0
w 76 -75 64 0
w 76 -75 -64 0
w 77 76 65 0
w 77 76 -65 0
w 77 -76 65 0
w 77 -76 -65 1
w 78 77 66 0
w 78 77 -66 1
w 78 -77 66 0
w 78 -77 -66 0
w 79 78 67 1
w 79 78 -67 0
w 79 -78 67 1
w 79 -78 -67 0
w 80 79 68 0.547602
w 80 79 -68 0.0148915
w 80 -79 68 0.237521
w 80 -79 -68 0.394812
w 81 80 69 1
w 81 80 -69 0
w 81 -80 69 1
w 81 -80 -69 0
w 82 81 70 0.249564
w 82 81 -70 0.327005
w 82 -81 70 0.536735
w 82 -81 -70 0.987291
w 83 82 71 0.98498
w 83 82 -71 0.0975026
w 83 -82 71 0.874328
w 83 -82 -71 0.065217
w 84 83 72 1
w 84 83 -72 0
w 84 -83 72 0
w 84 -83 -72 1
w 85 73 1
w 85 -73 0
w 86 85 74 1
w 86 85 -74 0
w 86 -85 74 0
w 86 -85 -74 0
w 87 86 75 0.237154
w 87 86 -75 0.0913297
w 87 -86 75 0.34429
w 87 -86 -75 0.527002
w 88 87 76 1
w 88 87 -76 0
w 88 -87 76 1
w 88 -87 -76 1
w 89 88 77 0
w 89 88 -77 1
w 89 -88 77 0
w 89 -88 -77 0
w 90 89 78 0
w 90 89 -78 1
w 90 -89 78 1
w 90 -89 -78 1
w 91 90 79 1
w 91 90 -79 1
w 91 -90 79 0
w 91 -90 -79 1
w 92 91 80 1
w 92 91 -80 1
w 92 -91 80 0
w 92 -91 -80 1
w 93 92 81 1
w 93 92 -81 1
w 93 -92 81 0
w 93 -92 -81 1
w 94 93 82 0.307768
w 94 93 -82 0.412371
w 94 -93 82 0.361153
w 94 -93 -82 0.744381
w 95 94 83 0.147573
w 95 94 -83 0.717728
w 95 -94 83 0.404538
w 95 -94 -83 0.815977
w 96 95 84 1
w 96 95 -84 1
w 96 -95 84 0
w 96 -95 -84 0
w 97 85 0.964564
w 97 -85 0.708908
w 98 97 86 0.526653
w 98 97 -86 0.743927
w 98 -97 86 0.109651
w 98 -97 -86 0.184494
w 99 98 87 1
w 99 98 -87 1
w 99 -98 87 0
w 99 -98 -87 0
w 100 99 88 0
w 100 99 -88 1
w 100 -99 88 0
w 100 -99 -88 0
w 101 100 89 1
w 101 100 -89 0
w 101 -100 89 1
w 101 -100 -89 0
w 102 101 90 0
w 102 101 -90 0
w 102 -101 90 1
w 102 -101 -90 0
w 103 102 91 1
w 103 102 -91 0
w 103 -102 91 1
w 103 -102 -91 1
w 104 103 92 0.60792
w 104 103 -92 0.708142
w 104 -103 92 0.119097
w 104 -103 -92 0.788741
w 105 104 93 1
w 105 104 -93 0
w 105 -104 93 0
w 105 -104 -93 0
w 106 105 94 0
w 106 105 -94 0
w 106 -105 94 1
w 106 -105 -94 0
w 107 106 95 0
w 107 106 -95 1
w 107 -106 95 1
w 107 -106 -95 1
w 108 107 96 0
w 108 107 -96 1
w 108 -107 96 1
w 108 -107 -96 0
w 109 97 0
w 109 -97 1
w 110 109 98 0
w 110 109 -98 1
w 110 -109 98 0
w 110 -109 -98 0
w 111 110 99 0.325969
w 111 110 -99 0.446056
w 111 -110 99 0.178347
w 111 -110 -99 0.141209
w 112 111 100 0.528972
w 112 111 -100 0.25557
w 112 -111 100 0.455778
w 112 -111 -100 0.176583
w 113 112 101 1
w 113 112 -101 1
w 113 -112 101 0
w 113 -112 -101 1
w 114 113 102 1
w 114 113 -102 0
w 114 -113 102 0
w 114 -113 -102 0
w 115 114 103 1
w 115 114 -103 0
w 115 -114 103 1
w 115 -114 -103 0
w 116 115 104 0.559255
w 116 115 -104 0.789642
w 116 -115 104 0.0595313
w 116 -115 -104 0.766127
w 117 116 105 0
w 117 116 -105 1
w 117 -116 105 1
w 117 -116 -105 0
w 118 117 106 0
w 118 117 -106 0
w 118 -117 106 0
w 118 -117 -106 1
w 119 118 107 0.0596654
w 119 118 -107 0.865969
w 119 -118 107 0.442197
w 119 -118 -107 0.507691
w 120 119 108 1
w 120 119 -108 1
w 120 -119 108 0
w 120 -119 -108 1
w 121 109 0
w 121 -109 1
w 122 121 110 0
w 122 121 -110 1
w 122 -121 110 0
w 122 -121 -110 0
w 123 122 111 1
w 123 122 -111 0
w 123 -122 111 0
w 123 -122 -111 0
w 124 123 112 0
w 124 123 -112 1
w 124 -123 112 0
w 124 -123 -112 1
w 125 124 113 1
w 125 124 -113 1
w 125 -124 113 0
w 125 -124 -113 0
w 126 125 114 1
w 126 125 -114 1
w 126 -125 114 0
w 126 -125 -114 0
w 127 126 115 0.151519
w 127 126 -115 0.000751057
w 127 -126 115 0.444677
w 127 -126 -115 0.841284
w 128 127 116 0
w 128 127 -116 0
w 128 -127 116 0
w 128 -127 -116 1
w 129 128 117 1
w 129 128 -117 0
w 129 -128 117 1
w 129 -128 -117 0
w 130 129 118 0.727074
w 130 129 -118 0.525728
w 130 -129 118 0.742809
w 130 -129 -118 0.65055
w 131 130 119 1
w 131 130 -119 1
w 131 -130 119 0
w 131 -130 -119 1
w 132 131 120 0.221399
w 132 131 -120 0.713705
w 132 -131 120 0.876648
w 132 -131 -120 0.830382
w 133 121 1
w 133 -121 0
w 134 133 122 0.522897
w 134 133 -122 0.284589
w 134 -133 122 0.823184
w 134 -133 -122 0.13863
w 135 134 123 0.498118
w 135 134 -123 0.656333
w 135 -134 123 0.022965
w 135 -134 -123 0.809163
w 136 135 124 1
w 136 135 -124 0
w 136 -135 124 0
w 136 -135 -124 0
w 137 136 125 0
w 137 136 -125 0
w 137 -136 125 1
w 137 -136 -125 1
w 138 137 126 0
w 138 137 -126 0
w 138 -137 126 0
w 138 -137 -126 1
w 139 138 127 1
w 139 138 -127 0
w 139 -138 127 0
w 139 -138 -127 0
w 140 139 128 1
w 140 139 -128 1
w 140 -139 128 0
w 140 -139 -128 0
w 141 140 129 0.419527
w 141 140 -129 0.159472
w 141 -140 129 0.730005
w 141 -140 -129 0.0547883
w 142 141 130 1
w 142 141 -130 0
w 142 -141 130 0
w 142 -141 -130 0
w 143 142 131 0
w 143 142 -131 0
w 143 -142 131 1
w 143 -142 -131 1
w 144 143 132 1
w 144 143 -132 0
w 144 -143 132 0
w 144 -143 -132 0